c Reduced graph for 4-FullIns_3 generated by Cyril Grelier
p edge 13 51
e 1 2
e 1 3
e 1 4
e 1 5
e 1 6
e 1 8
e 1 9
e 1 10
e 1 11
e 1 12
e 2 3
e 2 4
e 2 5
e 2 6
e 2 7
e 2 9
e 2 10
e 2 11
e 2 12
e 3 4
e 3 5
e 3 6
e 3 7
e 3 8
e 3 10
e 3 11
e 3 12
e 4 5
e 4 6
e 4 7
e 4 8
e 4 9
e 4 11
e 4 12
e 5 6
e 5 7
e 5 8
e 5 9
e 5 10
e 5 12
e 6 7
e 6 8
e 6 9
e 6 10
e 6 11
e 7 13
e 8 13
e 9 13
e 10 13
e 11 13
e 12 13
